3 3 2
30 2 36 1 71 2 54 0 90 1 39 2 62 1 74 0 68 2 91 0 83 2 31 1 73 0 41 2 6 1 1 0 46 2 61 1 31 2 43 1 62 0 42 2 86 1 59 0 94 2 40 1 96 0 33 1 97 2 51 1 56 
30 0 18 1 53 0 47 2 70 0 62 2 5 1 21 0 81 2 90 0 55 2 72 0 7 2 18 0 1 2 27 1 51 0 28 1 63 2 45 1 87 0 10 2 65 0 14 1 9 0 5 1 71 0 0 2 76 1 4 2 92 
30 0 47 1 30 2 50 1 33 2 86 1 79 0 49 1 33 2 88 0 48 1 21 0 64 1 74 2 84 0 34 2 88 0 9 2 55 0 9 1 92 2 44 1 29 0 27 2 72 0 89 1 46 0 38 1 30 0 74 2 82 

-------------
